70
1 0 98
2 0 26
2 1 56
3 0 59
3 1 98
3 2 93
4 0 46
4 1 52
4 2 71
4 3 9
5 0 33
5 1 74
5 2 76
5 3 79
5 4 69
6 0 41
6 1 57
6 2 61
6 3 45
6 4 20
6 5 90
7 0 28
7 1 20
7 2 46
7 3 31
7 4 71
7 5 32
7 6 24
8 0 46
8 1 48
8 2 31
8 3 37
8 4 51
8 5 54
8 6 31
8 7 35
9 0 96
9 1 42
9 2 71
9 3 82
9 4 65
9 5 50
9 6 27
9 7 78
9 8 84
10 0 5
10 1 21
10 2 88
10 3 57
10 4 92
10 5 17
10 6 48
10 7 66
10 8 35
10 9 96
11 0 15
11 1 8
11 2 13
11 3 49
11 4 3
11 5 61
11 6 2
11 7 48
11 8 6
11 9 97
11 10 37
12 0 59
12 1 100
12 2 79
12 3 19
12 4 19
12 5 92
12 6 15
12 7 6
12 8 91
12 9 30
12 10 68
12 11 81
13 0 72
13 1 19
13 2 20
13 3 79
13 4 14
13 5 93
13 6 53
13 7 2
13 8 73
13 9 41
13 10 4
13 11 76
13 12 18
14 0 80
14 1 88
14 2 17
14 3 51
14 4 39
14 5 6
14 6 4
14 7 14
14 8 85
14 9 88
14 10 93
14 11 4
14 12 3
14 13 26
15 0 7
15 1 2
15 2 25
15 3 98
15 4 89
15 5 97
15 6 46
15 7 99
15 8 7
15 9 58
15 10 2
15 11 22
15 12 38
15 13 92
15 14 76
16 0 57
16 1 80
16 2 78
16 3 60
16 4 95
16 5 73
16 6 73
16 7 99
16 8 61
16 9 8
16 10 39
16 11 86
16 12 20
16 13 74
16 14 10
16 15 87
17 0 16
17 1 69
17 2 30
17 3 13
17 4 42
17 5 63
17 6 8
17 7 70
17 8 55
17 9 9
17 10 86
17 11 58
17 12 89
17 13 15
17 14 1
17 15 94
17 16 12
18 0 47
18 1 99
18 2 71
18 3 47
18 4 19
18 5 33
18 6 5
18 7 51
18 8 67
18 9 36
18 10 11
18 11 10
18 12 56
18 13 78
18 14 3
18 15 6
18 16 33
18 17 21
19 0 36
19 1 58
19 2 30
19 3 50
19 4 12
19 5 54
19 6 100
19 7 36
19 8 25
19 9 7
19 10 9
19 11 54
19 12 24
19 13 11
19 14 48
19 15 81
19 16 4
19 17 93
19 18 19
20 0 22
20 1 68
20 2 63
20 3 7
20 4 56
20 5 14
20 6 28
20 7 57
20 8 95
20 9 39
20 10 9
20 11 8
20 12 98
20 13 71
20 14 84
20 15 52
20 16 87
20 17 59
20 18 51
20 19 24
21 0 43
21 1 86
21 2 59
21 3 40
21 4 96
21 5 100
21 6 90
21 7 38
21 8 38
21 9 59
21 10 58
21 11 92
21 12 99
21 13 35
21 14 70
21 15 99
21 16 88
21 17 40
21 18 65
21 19 59
21 20 87
22 0 54
22 1 26
22 2 9
22 3 44
22 4 72
22 5 31
22 6 65
22 7 94
22 8 3
22 9 83
22 10 92
22 11 25
22 12 83
22 13 46
22 14 13
22 15 58
22 16 92
22 17 61
22 18 2
22 19 94
22 20 77
22 21 35
23 0 53
23 1 79
23 2 29
23 3 22
23 4 4
23 5 52
23 6 68
23 7 29
23 8 50
23 9 11
23 10 19
23 11 31
23 12 98
23 13 92
23 14 7
23 15 68
23 16 19
23 17 47
23 18 83
23 19 62
23 20 23
23 21 77
23 22 62
24 0 78
24 1 58
24 2 42
24 3 54
24 4 8
24 5 91
24 6 70
24 7 88
24 8 71
24 9 49
24 10 22
24 11 89
24 12 37
24 13 8
24 14 90
24 15 43
24 16 31
24 17 63
24 18 40
24 19 53
24 20 65
24 21 27
24 22 24
24 23 100
25 0 20
25 1 22
25 2 17
25 3 22
25 4 63
25 5 83
25 6 60
25 7 9
25 8 64
25 9 71
25 10 18
25 11 59
25 12 76
25 13 66
25 14 76
25 15 48
25 16 62
25 17 7
25 18 29
25 19 11
25 20 95
25 21 69
25 22 54
25 23 25
25 24 77
26 0 17
26 1 61
26 2 71
26 3 27
26 4 75
26 5 52
26 6 74
26 7 53
26 8 78
26 9 54
26 10 74
26 11 14
26 12 29
26 13 90
26 14 91
26 15 6
26 16 55
26 17 10
26 18 46
26 19 63
26 20 37
26 21 100
26 22 80
26 23 42
26 24 68
26 25 26
27 0 86
27 1 23
27 2 52
27 3 99
27 4 28
27 5 60
27 6 59
27 7 60
27 8 19
27 9 59
27 10 92
27 11 15
27 12 88
27 13 66
27 14 28
27 15 84
27 16 58
27 17 88
27 18 46
27 19 32
27 20 100
27 21 84
27 22 61
27 23 89
27 24 53
27 25 8
27 26 3
28 0 3
28 1 15
28 2 76
28 3 32
28 4 61
28 5 48
28 6 87
28 7 73
28 8 72
28 9 56
28 10 48
28 11 3
28 12 13
28 13 14
28 14 45
28 15 39
28 16 65
28 17 81
28 18 84
28 19 90
28 20 98
28 21 2
28 22 95
28 23 91
28 24 89
28 25 91
28 26 54
28 27 26
29 0 62
29 1 65
29 2 85
29 3 94
29 4 4
29 5 34
29 6 44
29 7 97
29 8 89
29 9 6
29 10 87
29 11 38
29 12 4
29 13 48
29 14 77
29 15 71
29 16 82
29 17 91
29 18 96
29 19 25
29 20 62
29 21 9
29 22 45
29 23 1
29 24 40
29 25 82
29 26 71
29 27 30
29 28 92
30 0 23
30 1 29
30 2 17
30 3 65
30 4 48
30 5 89
30 6 12
30 7 75
30 8 5
30 9 40
30 10 99
30 11 66
30 12 90
30 13 42
30 14 87
30 15 99
30 16 17
30 17 42
30 18 35
30 19 99
30 20 37
30 21 40
30 22 52
30 23 62
30 24 90
30 25 94
30 26 57
30 27 100
30 28 67
30 29 66
31 0 83
31 1 92
31 2 99
31 3 81
31 4 71
31 5 50
31 6 96
31 7 32
31 8 69
31 9 30
31 10 29
31 11 58
31 12 54
31 13 39
31 14 88
31 15 84
31 16 28
31 17 27
31 18 94
31 19 83
31 20 54
31 21 60
31 22 33
31 23 19
31 24 55
31 25 9
31 26 40
31 27 70
31 28 53
31 29 4
31 30 52
32 0 42
32 1 61
32 2 49
32 3 7
32 4 20
32 5 32
32 6 80
32 7 67
32 8 29
32 9 32
32 10 13
32 11 75
32 12 81
32 13 97
32 14 36
32 15 92
32 16 48
32 17 83
32 18 12
32 19 61
32 20 83
32 21 21
32 22 16
32 23 100
32 24 72
32 25 41
32 26 23
32 27 18
32 28 1
32 29 27
32 30 5
32 31 7
33 0 54
33 1 6
33 2 24
33 3 64
33 4 95
33 5 96
33 6 14
33 7 23
33 8 92
33 9 57
33 10 94
33 11 23
33 12 76
33 13 26
33 14 57
33 15 31
33 16 60
33 17 29
33 18 23
33 19 100
33 20 51
33 21 96
33 22 60
33 23 32
33 24 30
33 25 29
33 26 94
33 27 62
33 28 90
33 29 94
33 30 73
33 31 11
33 32 48
34 0 37
34 1 70
34 2 50
34 3 77
34 4 52
34 5 6
34 6 77
34 7 19
34 8 38
34 9 56
34 10 6
34 11 83
34 12 37
34 13 65
34 14 20
34 15 34
34 16 33
34 17 69
34 18 29
34 19 19
34 20 52
34 21 24
34 22 40
34 23 5
34 24 93
34 25 70
34 26 33
34 27 10
34 28 92
34 29 86
34 30 95
34 31 51
34 32 85
34 33 19
35 0 55
35 1 54
35 2 17
35 3 86
35 4 26
35 5 85
35 6 40
35 7 86
35 8 51
35 9 5
35 10 70
35 11 76
35 12 94
35 13 55
35 14 1
35 15 82
35 16 42
35 17 28
35 18 14
35 19 63
35 20 93
35 21 82
35 22 3
35 23 51
35 24 56
35 25 90
35 26 23
35 27 22
35 28 84
35 29 56
35 30 36
35 31 79
35 32 15
35 33 19
35 34 83
36 0 57
36 1 96
36 2 32
36 3 45
36 4 67
36 5 14
36 6 96
36 7 46
36 8 50
36 9 52
36 10 74
36 11 11
36 12 14
36 13 53
36 14 22
36 15 99
36 16 50
36 17 61
36 18 8
36 19 61
36 20 75
36 21 59
36 22 12
36 23 89
36 24 45
36 25 37
36 26 20
36 27 71
36 28 19
36 29 55
36 30 64
36 31 53
36 32 84
36 33 83
36 34 60
36 35 89
37 0 65
37 1 28
37 2 59
37 3 10
37 4 82
37 5 96
37 6 100
37 7 56
37 8 25
37 9 34
37 10 37
37 11 59
37 12 64
37 13 49
37 14 85
37 15 48
37 16 11
37 17 12
37 18 94
37 19 38
37 20 1
37 21 85
37 22 49
37 23 7
37 24 61
37 25 31
37 26 65
37 27 86
37 28 84
37 29 89
37 30 19
37 31 5
37 32 27
37 33 38
37 34 29
37 35 71
37 36 91
38 0 73
38 1 85
38 2 88
38 3 74
38 4 57
38 5 89
38 6 18
38 7 83
38 8 44
38 9 58
38 10 59
38 11 52
38 12 72
38 13 85
38 14 99
38 15 7
38 16 76
38 17 91
38 18 39
38 19 73
38 20 65
38 21 79
38 22 33
38 23 19
38 24 68
38 25 97
38 26 62
38 27 62
38 28 47
38 29 67
38 30 42
38 31 11
38 32 16
38 33 20
38 34 54
38 35 8
38 36 34
38 37 71
39 0 14
39 1 73
39 2 51
39 3 5
39 4 48
39 5 100
39 6 20
39 7 58
39 8 28
39 9 39
39 10 10
39 11 27
39 12 78
39 13 58
39 14 93
39 15 31
39 16 80
39 17 81
39 18 65
39 19 12
39 20 7
39 21 39
39 22 50
39 23 51
39 24 81
39 25 86
39 26 81
39 27 23
39 28 39
39 29 57
39 30 57
39 31 39
39 32 43
39 33 79
39 34 39
39 35 33
39 36 66
39 37 63
39 38 3
40 0 94
40 1 45
40 2 27
40 3 87
40 4 60
40 5 93
40 6 42
40 7 99
40 8 4
40 9 90
40 10 89
40 11 55
40 12 5
40 13 5
40 14 76
40 15 80
40 16 67
40 17 30
40 18 53
40 19 92
40 20 32
40 21 6
40 22 20
40 23 40
40 24 2
40 25 93
40 26 15
40 27 75
40 28 61
40 29 100
40 30 39
40 31 74
40 32 79
40 33 77
40 34 41
40 35 41
40 36 8
40 37 52
40 38 69
40 39 62
41 0 33
41 1 40
41 2 77
41 3 85
41 4 24
41 5 80
41 6 28
41 7 47
41 8 96
41 9 59
41 10 40
41 11 80
41 12 91
41 13 38
41 14 57
41 15 58
41 16 15
41 17 92
41 18 57
41 19 70
41 20 19
41 21 20
41 22 15
41 23 35
41 24 90
41 25 97
41 26 87
41 27 84
41 28 93
41 29 60
41 30 90
41 31 91
41 32 92
41 33 65
41 34 83
41 35 14
41 36 23
41 37 54
41 38 80
41 39 77
41 40 10
42 0 6
42 1 49
42 2 23
42 3 46
42 4 75
42 5 82
42 6 90
42 7 71
42 8 42
42 9 30
42 10 18
42 11 30
42 12 13
42 13 47
42 14 73
42 15 88
42 16 65
42 17 90
42 18 45
42 19 30
42 20 5
42 21 53
42 22 67
42 23 86
42 24 98
42 25 44
42 26 54
42 27 46
42 28 90
42 29 38
42 30 56
42 31 58
42 32 13
42 33 56
42 34 87
42 35 32
42 36 59
42 37 50
42 38 57
42 39 86
42 40 64
42 41 1
43 0 34
43 1 7
43 2 27
43 3 61
43 4 5
43 5 8
43 6 68
43 7 94
43 8 11
43 9 22
43 10 92
43 11 94
43 12 87
43 13 44
43 14 7
43 15 80
43 16 11
43 17 22
43 18 31
43 19 17
43 20 68
43 21 58
43 22 73
43 23 93
43 24 67
43 25 64
43 26 73
43 27 50
43 28 65
43 29 96
43 30 37
43 31 69
43 32 99
43 33 41
43 34 10
43 35 36
43 36 18
43 37 52
43 38 64
43 39 45
43 40 71
43 41 46
43 42 90
44 0 27
44 1 1
44 2 5
44 3 41
44 4 92
44 5 25
44 6 51
44 7 41
44 8 35
44 9 34
44 10 90
44 11 66
44 12 42
44 13 27
44 14 32
44 15 79
44 16 95
44 17 43
44 18 43
44 19 39
44 20 59
44 21 98
44 22 92
44 23 53
44 24 100
44 25 6
44 26 74
44 27 16
44 28 86
44 29 52
44 30 47
44 31 68
44 32 36
44 33 52
44 34 11
44 35 68
44 36 47
44 37 11
44 38 1
44 39 46
44 40 100
44 41 59
44 42 84
44 43 3
45 0 29
45 1 42
45 2 83
45 3 62
45 4 13
45 5 87
45 6 69
45 7 88
45 8 3
45 9 61
45 10 80
45 11 27
45 12 16
45 13 15
45 14 76
45 15 40
45 16 43
45 17 59
45 18 27
45 19 37
45 20 66
45 21 23
45 22 1
45 23 16
45 24 72
45 25 99
45 26 92
45 27 74
45 28 4
45 29 66
45 30 10
45 31 62
45 32 7
45 33 36
45 34 20
45 35 71
45 36 36
45 37 96
45 38 2
45 39 81
45 40 44
45 41 3
45 42 76
45 43 27
45 44 76
46 0 81
46 1 96
46 2 42
46 3 23
46 4 20
46 5 36
46 6 92
46 7 10
46 8 67
46 9 93
46 10 11
46 11 41
46 12 76
46 13 91
46 14 97
46 15 12
46 16 38
46 17 72
46 18 36
46 19 55
46 20 26
46 21 89
46 22 56
46 23 92
46 24 17
46 25 54
46 26 36
46 27 14
46 28 68
46 29 89
46 30 11
46 31 92
46 32 73
46 33 100
46 34 56
46 35 97
46 36 27
46 37 63
46 38 50
46 39 3
46 40 59
46 41 86
46 42 24
46 43 72
46 44 25
46 45 2
47 0 70
47 1 53
47 2 62
47 3 95
47 4 65
47 5 61
47 6 60
47 7 69
47 8 13
47 9 98
47 10 85
47 11 2
47 12 34
47 13 34
47 14 63
47 15 63
47 16 41
47 17 81
47 18 29
47 19 72
47 20 92
47 21 95
47 22 69
47 23 25
47 24 93
47 25 14
47 26 28
47 27 39
47 28 3
47 29 10
47 30 66
47 31 53
47 32 72
47 33 10
47 34 68
47 35 19
47 36 83
47 37 20
47 38 58
47 39 64
47 40 20
47 41 44
47 42 60
47 43 89
47 44 54
47 45 99
47 46 7
48 0 63
48 1 25
48 2 64
48 3 4
48 4 2
48 5 68
48 6 97
48 7 82
48 8 61
48 9 8
48 10 31
48 11 2
48 12 70
48 13 24
48 14 23
48 15 98
48 16 93
48 17 46
48 18 11
48 19 67
48 20 86
48 21 56
48 22 18
48 23 54
48 24 93
48 25 81
48 26 90
48 27 72
48 28 7
48 29 23
48 30 72
48 31 63
48 32 66
48 33 53
48 34 50
48 35 2
48 36 83
48 37 56
48 38 20
48 39 84
48 40 18
48 41 26
48 42 57
48 43 48
48 44 45
48 45 20
48 46 89
48 47 37
49 0 77
49 1 44
49 2 19
49 3 94
49 4 32
49 5 23
49 6 26
49 7 35
49 8 80
49 9 66
49 10 55
49 11 60
49 12 89
49 13 46
49 14 71
49 15 86
49 16 54
49 17 43
49 18 29
49 19 25
49 20 95
49 21 24
49 22 12
49 23 16
49 24 45
49 25 65
49 26 98
49 27 10
49 28 65
49 29 31
49 30 92
49 31 60
49 32 59
49 33 59
49 34 25
49 35 50
49 36 81
49 37 37
49 38 92
49 39 83
49 40 48
49 41 52
49 42 6
49 43 11
49 44 4
49 45 56
49 46 63
49 47 61
49 48 1
50 0 79
50 1 65
50 2 5
50 3 100
50 4 69
50 5 40
50 6 85
50 7 84
50 8 71
50 9 55
50 10 54
50 11 59
50 12 41
50 13 5
50 14 43
50 15 83
50 16 76
50 17 35
50 18 38
50 19 31
50 20 4
50 21 27
50 22 15
50 23 5
50 24 61
50 25 49
50 26 2
50 27 40
50 28 49
50 29 54
50 30 39
50 31 68
50 32 52
50 33 80
50 34 55
50 35 29
50 36 68
50 37 85
50 38 3
50 39 57
50 40 54
50 41 14
50 42 6
50 43 76
50 44 18
50 45 88
50 46 3
50 47 73
50 48 3
50 49 64
51 0 9
51 1 45
51 2 28
51 3 1
51 4 23
51 5 36
51 6 4
51 7 21
51 8 44
51 9 3
51 10 24
51 11 79
51 12 86
51 13 89
51 14 2
51 15 53
51 16 98
51 17 77
51 18 10
51 19 27
51 20 28
51 21 62
51 22 34
51 23 34
51 24 92
51 25 75
51 26 56
51 27 73
51 28 36
51 29 23
51 30 18
51 31 26
51 32 99
51 33 45
51 34 45
51 35 28
51 36 15
51 37 95
51 38 19
51 39 80
51 40 15
51 41 2
51 42 29
51 43 91
51 44 18
51 45 67
51 46 54
51 47 5
51 48 18
51 49 90
51 50 40
52 0 40
52 1 5
52 2 58
52 3 80
52 4 44
52 5 81
52 6 13
52 7 14
52 8 59
52 9 63
52 10 89
52 11 9
52 12 20
52 13 72
52 14 100
52 15 70
52 16 63
52 17 57
52 18 97
52 19 14
52 20 95
52 21 7
52 22 41
52 23 97
52 24 56
52 25 42
52 26 57
52 27 66
52 28 90
52 29 93
52 30 57
52 31 1
52 32 79
52 33 4
52 34 60
52 35 47
52 36 27
52 37 23
52 38 39
52 39 59
52 40 98
52 41 65
52 42 78
52 43 10
52 44 29
52 45 58
52 46 17
52 47 33
52 48 87
52 49 12
52 50 3
52 51 6
53 0 37
53 1 65
53 2 11
53 3 87
53 4 38
53 5 100
53 6 67
53 7 62
53 8 88
53 9 41
53 10 2
53 11 72
53 12 74
53 13 66
53 14 25
53 15 24
53 16 15
53 17 92
53 18 81
53 19 5
53 20 92
53 21 26
53 22 41
53 23 47
53 24 4
53 25 96
53 26 31
53 27 22
53 28 100
53 29 81
53 30 17
53 31 62
53 32 70
53 33 26
53 34 77
53 35 28
53 36 94
53 37 4
53 38 38
53 39 78
53 40 93
53 41 57
53 42 69
53 43 9
53 44 19
53 45 39
53 46 50
53 47 66
53 48 75
53 49 24
53 50 42
53 51 52
53 52 75
54 0 75
54 1 59
54 2 76
54 3 55
54 4 73
54 5 99
54 6 23
54 7 13
54 8 44
54 9 73
54 10 39
54 11 41
54 12 62
54 13 74
54 14 55
54 15 64
54 16 83
54 17 41
54 18 2
54 19 8
54 20 55
54 21 22
54 22 89
54 23 63
54 24 18
54 25 53
54 26 43
54 27 8
54 28 60
54 29 86
54 30 32
54 31 13
54 32 24
54 33 42
54 34 25
54 35 47
54 36 65
54 37 85
54 38 62
54 39 35
54 40 100
54 41 25
54 42 26
54 43 72
54 44 19
54 45 93
54 46 52
54 47 58
54 48 19
54 49 67
54 50 10
54 51 29
54 52 10
54 53 28
55 0 46
55 1 100
55 2 91
55 3 74
55 4 74
55 5 29
55 6 87
55 7 28
55 8 43
55 9 88
55 10 10
55 11 8
55 12 32
55 13 83
55 14 79
55 15 57
55 16 42
55 17 68
55 18 9
55 19 41
55 20 84
55 21 48
55 22 56
55 23 74
55 24 95
55 25 53
55 26 89
55 27 15
55 28 14
55 29 41
55 30 94
55 31 48
55 32 14
55 33 60
55 34 75
55 35 56
55 36 71
55 37 66
55 38 75
55 39 31
55 40 95
55 41 90
55 42 37
55 43 86
55 44 89
55 45 1
55 46 92
55 47 70
55 48 88
55 49 94
55 50 29
55 51 91
55 52 86
55 53 10
55 54 92
56 0 97
56 1 86
56 2 78
56 3 6
56 4 87
56 5 95
56 6 8
56 7 24
56 8 34
56 9 68
56 10 1
56 11 58
56 12 42
56 13 78
56 14 46
56 15 22
56 16 88
56 17 47
56 18 11
56 19 12
56 20 96
56 21 80
56 22 63
56 23 92
56 24 66
56 25 84
56 26 67
56 27 62
56 28 37
56 29 59
56 30 46
56 31 39
56 32 69
56 33 1
56 34 6
56 35 60
56 36 73
56 37 50
56 38 59
56 39 96
56 40 11
56 41 62
56 42 96
56 43 38
56 44 63
56 45 14
56 46 88
56 47 92
56 48 19
56 49 50
56 50 29
56 51 91
56 52 48
56 53 23
56 54 41
56 55 19
57 0 55
57 1 16
57 2 3
57 3 90
57 4 27
57 5 23
57 6 77
57 7 47
57 8 19
57 9 27
57 10 47
57 11 58
57 12 46
57 13 28
57 14 86
57 15 29
57 16 75
57 17 73
57 18 28
57 19 67
57 20 31
57 21 12
57 22 92
57 23 55
57 24 60
57 25 86
57 26 6
57 27 18
57 28 26
57 29 11
57 30 16
57 31 6
57 32 14
57 33 13
57 34 74
57 35 20
57 36 82
57 37 31
57 38 56
57 39 43
57 40 87
57 41 2
57 42 35
57 43 63
57 44 51
57 45 75
57 46 29
57 47 3
57 48 79
57 49 41
57 50 77
57 51 91
57 52 24
57 53 57
57 54 32
57 55 31
57 56 53
58 0 9
58 1 74
58 2 62
58 3 82
58 4 49
58 5 61
58 6 18
58 7 71
58 8 84
58 9 92
58 10 20
58 11 90
58 12 15
58 13 49
58 14 73
58 15 14
58 16 56
58 17 24
58 18 38
58 19 96
58 20 71
58 21 68
58 22 3
58 23 26
58 24 7
58 25 13
58 26 86
58 27 85
58 28 33
58 29 43
58 30 27
58 31 35
58 32 88
58 33 27
58 34 64
58 35 28
58 36 2
58 37 36
58 38 93
58 39 100
58 40 63
58 41 8
58 42 62
58 43 92
58 44 19
58 45 34
58 46 42
58 47 33
58 48 55
58 49 70
58 50 85
58 51 42
58 52 70
58 53 14
58 54 59
58 55 58
58 56 56
58 57 87
59 0 4
59 1 4
59 2 59
59 3 15
59 4 79
59 5 33
59 6 43
59 7 11
59 8 71
59 9 23
59 10 27
59 11 76
59 12 86
59 13 9
59 14 46
59 15 93
59 16 61
59 17 78
59 18 45
59 19 85
59 20 52
59 21 61
59 22 35
59 23 32
59 24 84
59 25 95
59 26 44
59 27 100
59 28 82
59 29 48
59 30 58
59 31 18
59 32 12
59 33 16
59 34 28
59 35 82
59 36 95
59 37 51
59 38 89
59 39 16
59 40 82
59 41 66
59 42 20
59 43 84
59 44 4
59 45 34
59 46 35
59 47 38
59 48 22
59 49 74
59 50 91
59 51 67
59 52 50
59 53 86
59 54 49
59 55 53
59 56 37
59 57 95
59 58 23
60 0 72
60 1 13
60 2 89
60 3 5
60 4 87
60 5 32
60 6 87
60 7 54
60 8 12
60 9 90
60 10 60
60 11 76
60 12 65
60 13 87
60 14 86
60 15 54
60 16 21
60 17 52
60 18 24
60 19 77
60 20 39
60 21 69
60 22 33
60 23 94
60 24 26
60 25 58
60 26 63
60 27 6
60 28 58
60 29 5
60 30 6
60 31 34
60 32 78
60 33 54
60 34 87
60 35 58
60 36 28
60 37 81
60 38 6
60 39 5
60 40 100
60 41 32
60 42 93
60 43 31
60 44 5
60 45 4
60 46 32
60 47 20
60 48 95
60 49 69
60 50 38
60 51 2
60 52 88
60 53 97
60 54 27
60 55 67
60 56 78
60 57 22
60 58 98
60 59 8
61 0 41
61 1 52
61 2 12
61 3 41
61 4 59
61 5 18
61 6 50
61 7 80
61 8 16
61 9 14
61 10 74
61 11 51
61 12 55
61 13 82
61 14 32
61 15 93
61 16 99
61 17 26
61 18 65
61 19 66
61 20 54
61 21 72
61 22 31
61 23 70
61 24 65
61 25 6
61 26 37
61 27 44
61 28 99
61 29 52
61 30 45
61 31 95
61 32 56
61 33 83
61 34 98
61 35 89
61 36 41
61 37 61
61 38 77
61 39 83
61 40 58
61 41 62
61 42 100
61 43 100
61 44 96
61 45 30
61 46 98
61 47 61
61 48 15
61 49 57
61 50 48
61 51 43
61 52 74
61 53 96
61 54 46
61 55 5
61 56 30
61 57 44
61 58 45
61 59 16
61 60 21
62 0 58
62 1 94
62 2 84
62 3 7
62 4 85
62 5 50
62 6 41
62 7 25
62 8 29
62 9 54
62 10 67
62 11 88
62 12 75
62 13 85
62 14 37
62 15 36
62 16 41
62 17 46
62 18 32
62 19 18
62 20 53
62 21 35
62 22 38
62 23 51
62 24 32
62 25 5
62 26 39
62 27 9
62 28 47
62 29 19
62 30 77
62 31 13
62 32 92
62 33 60
62 34 9
62 35 41
62 36 70
62 37 43
62 38 20
62 39 75
62 40 97
62 41 38
62 42 56
62 43 50
62 44 59
62 45 15
62 46 72
62 47 78
62 48 93
62 49 50
62 50 37
62 51 58
62 52 66
62 53 67
62 54 20
62 55 95
62 56 71
62 57 1
62 58 54
62 59 91
62 60 79
62 61 12
63 0 59
63 1 84
63 2 93
63 3 75
63 4 63
63 5 37
63 6 14
63 7 25
63 8 52
63 9 15
63 10 7
63 11 53
63 12 46
63 13 96
63 14 23
63 15 55
63 16 73
63 17 4
63 18 19
63 19 99
63 20 90
63 21 64
63 22 79
63 23 53
63 24 80
63 25 12
63 26 44
63 27 85
63 28 17
63 29 11
63 30 74
63 31 47
63 32 77
63 33 61
63 34 22
63 35 80
63 36 37
63 37 96
63 38 94
63 39 19
63 40 3
63 41 12
63 42 12
63 43 76
63 44 41
63 45 72
63 46 12
63 47 34
63 48 10
63 49 64
63 50 44
63 51 83
63 52 20
63 53 34
63 54 53
63 55 71
63 56 70
63 57 4
63 58 61
63 59 60
63 60 28
63 61 49
63 62 77
64 0 8
64 1 66
64 2 88
64 3 7
64 4 15
64 5 61
64 6 32
64 7 37
64 8 4
64 9 19
64 10 73
64 11 15
64 12 33
64 13 94
64 14 10
64 15 54
64 16 40
64 17 95
64 18 68
64 19 32
64 20 87
64 21 19
64 22 21
64 23 63
64 24 53
64 25 43
64 26 55
64 27 52
64 28 70
64 29 55
64 30 12
64 31 82
64 32 33
64 33 26
64 34 16
64 35 81
64 36 6
64 37 48
64 38 65
64 39 53
64 40 11
64 41 73
64 42 29
64 43 8
64 44 84
64 45 48
64 46 18
64 47 95
64 48 7
64 49 23
64 50 77
64 51 21
64 52 80
64 53 79
64 54 32
64 55 39
64 56 75
64 57 98
64 58 20
64 59 9
64 60 91
64 61 76
64 62 34
64 63 76
65 0 3
65 1 58
65 2 90
65 3 21
65 4 61
65 5 28
65 6 7
65 7 79
65 8 11
65 9 98
65 10 35
65 11 18
65 12 18
65 13 78
65 14 75
65 15 45
65 16 11
65 17 14
65 18 93
65 19 65
65 20 4
65 21 31
65 22 11
65 23 9
65 24 51
65 25 14
65 26 20
65 27 25
65 28 21
65 29 23
65 30 57
65 31 74
65 32 31
65 33 9
65 34 40
65 35 95
65 36 58
65 37 95
65 38 59
65 39 18
65 40 8
65 41 32
65 42 50
65 43 42
65 44 41
65 45 30
65 46 12
65 47 16
65 48 53
65 49 50
65 50 50
65 51 78
65 52 71
65 53 89
65 54 34
65 55 40
65 56 21
65 57 99
65 58 30
65 59 37
65 60 73
65 61 16
65 62 28
65 63 69
65 64 59
66 0 8
66 1 75
66 2 96
66 3 35
66 4 44
66 5 94
66 6 82
66 7 25
66 8 58
66 9 35
66 10 89
66 11 68
66 12 62
66 13 14
66 14 62
66 15 58
66 16 19
66 17 3
66 18 68
66 19 44
66 20 90
66 21 96
66 22 73
66 23 43
66 24 20
66 25 68
66 26 64
66 27 60
66 28 11
66 29 90
66 30 63
66 31 40
66 32 10
66 33 73
66 34 86
66 35 83
66 36 13
66 37 53
66 38 32
66 39 3
66 40 44
66 41 42
66 42 22
66 43 13
66 44 86
66 45 3
66 46 19
66 47 58
66 48 53
66 49 24
66 50 85
66 51 37
66 52 34
66 53 7
66 54 71
66 55 83
66 56 54
66 57 91
66 58 48
66 59 95
66 60 35
66 61 67
66 62 14
66 63 34
66 64 37
66 65 67
67 0 35
67 1 33
67 2 21
67 3 36
67 4 15
67 5 81
67 6 82
67 7 4
67 8 100
67 9 79
67 10 5
67 11 29
67 12 51
67 13 88
67 14 72
67 15 83
67 16 56
67 17 99
67 18 22
67 19 78
67 20 54
67 21 5
67 22 24
67 23 81
67 24 96
67 25 71
67 26 30
67 27 60
67 28 72
67 29 98
67 30 14
67 31 41
67 32 63
67 33 51
67 34 15
67 35 87
67 36 10
67 37 95
67 38 33
67 39 22
67 40 13
67 41 52
67 42 57
67 43 67
67 44 84
67 45 75
67 46 20
67 47 49
67 48 29
67 49 7
67 50 1
67 51 11
67 52 43
67 53 64
67 54 36
67 55 35
67 56 20
67 57 59
67 58 90
67 59 36
67 60 25
67 61 76
67 62 17
67 63 19
67 64 80
67 65 24
67 66 4
68 0 92
68 1 66
68 2 66
68 3 65
68 4 65
68 5 30
68 6 85
68 7 57
68 8 97
68 9 48
68 10 28
68 11 11
68 12 73
68 13 11
68 14 59
68 15 5
68 16 96
68 17 100
68 18 93
68 19 27
68 20 60
68 21 78
68 22 98
68 23 7
68 24 17
68 25 34
68 26 89
68 27 7
68 28 54
68 29 28
68 30 56
68 31 1
68 32 65
68 33 42
68 34 89
68 35 91
68 36 50
68 37 32
68 38 96
68 39 31
68 40 7
68 41 22
68 42 27
68 43 65
68 44 82
68 45 12
68 46 60
68 47 88
68 48 94
68 49 67
68 50 98
68 51 1
68 52 60
68 53 13
68 54 80
68 55 6
68 56 73
68 57 77
68 58 26
68 59 73
68 60 20
68 61 17
68 62 53
68 63 67
68 64 38
68 65 48
68 66 26
68 67 15
69 0 40
69 1 59
69 2 53
69 3 65
69 4 73
69 5 70
69 6 18
69 7 51
69 8 71
69 9 82
69 10 16
69 11 76
69 12 33
69 13 7
69 14 44
69 15 69
69 16 28
69 17 96
69 18 47
69 19 90
69 20 12
69 21 91
69 22 37
69 23 74
69 24 3
69 25 73
69 26 17
69 27 49
69 28 55
69 29 87
69 30 95
69 31 68
69 32 32
69 33 48
69 34 70
69 35 38
69 36 55
69 37 83
69 38 1
69 39 27
69 40 90
69 41 54
69 42 22
69 43 97
69 44 94
69 45 48
69 46 49
69 47 95
69 48 38
69 49 64
69 50 80
69 51 78
69 52 69
69 53 7
69 54 19
69 55 77
69 56 90
69 57 72
69 58 36
69 59 19
69 60 60
69 61 94
69 62 61
69 63 53
69 64 47
69 65 73
69 66 90
69 67 69
69 68 87
